100 10
554 129
891 796
225 329
502 882
714 658
535 583
652 394
694 586
588 236
577 685
558 454
270 572
636 86
729 536
638 134
697 813
649 363
452 310
340 484
642 32
676 800
463 477
287 762
633 601
686 635
751 486
272 529
454 808
550 481
487 100
928 537
527 540
656 551
281 488
286 731
666 516
499 577
543 243
726 562
210 816
293 470
341 155
378 271
611 327
559 833
403 419
413 656
515 420
718 626
553 693
693 476
697 571
599 459
235 460
318 540
637 541
476 564
635 759
141 410
393 313
575 242
263 206
739 354
662 652
444 129
832 42
428 614
872 462
709 292
403 311
154 431
293 620
797 774
65 505
761 635
456 232
776 350
899 388
615 696
813 641
722 647
623 607
691 904
670 290
836 809
797 277
655 452
521 228
824 886
659 505
465 125
311 826
668 642
537 735
564 206
307 343
343 502
646 215
301 599
708 624
